
******************************************************************************
This program contains Ipopt, a library for large-scale nonlinear optimization.
 Ipopt is released as open source code under the Eclipse Public License (EPL).
         For more information visit http://projects.coin-or.org/Ipopt
******************************************************************************

This is Ipopt version 3.12.6, running with linear solver ma57.

Number of nonzeros in equality constraint Jacobian...:     5214
Number of nonzeros in inequality constraint Jacobian.:      262
Number of nonzeros in Lagrangian Hessian.............:     4080

Reallocating memory for MA57: lfact (73233)
Reallocating memory for MA57: lfact (77026)
Total number of variables............................:      343
                     variables with only lower bounds:        0
                variables with lower and upper bounds:      343
                     variables with only upper bounds:        0
Total number of equality constraints.................:      224
Total number of inequality constraints...............:       89
        inequality constraints with only lower bounds:        0
   inequality constraints with lower and upper bounds:        0
        inequality constraints with only upper bounds:       89

iter    objective    inf_pr   inf_du lg(mu)  ||d||  lg(rg) alpha_du alpha_pr  ls
   0 -9.5780000e-01 7.44e-02 1.00e+00  -1.0 0.00e+00    -  0.00e+00 0.00e+00   0
   1 -6.0537705e-01 8.72e-02 1.21e+01  -1.0 2.57e-01    -  7.07e-02 1.00e+00f  1
   2 -1.1444300e-01 1.17e-02 5.19e+00  -1.0 5.39e-01    -  5.06e-01 1.00e+00f  1
   3  8.4188990e-01 1.84e-03 1.25e+00  -1.0 9.72e-01    -  6.11e-01 1.00e+00f  1
   4  2.6314066e+00 3.63e-05 3.49e-02  -1.0 1.79e+00    -  1.00e+00 1.00e+00f  1
   5  3.2990746e-01 9.08e-07 1.69e-02  -1.7 2.30e+00    -  1.00e+00 1.00e+00f  1
   6 -9.0669835e-01 3.83e-05 1.87e-01  -2.5 1.45e+00    -  1.00e+00 8.50e-01f  1
   7 -8.9419430e-01 4.76e-04 2.09e-02  -2.5 2.51e-02    -  1.00e+00 1.00e+00h  1
   8 -9.1902052e-01 2.75e-04 1.10e-01  -3.8 3.83e-02    -  8.53e-01 5.78e-01h  1
   9 -9.2013415e-01 1.33e-05 6.58e-03  -3.8 6.35e-03   0.0 1.00e+00 1.00e+00h  1
iter    objective    inf_pr   inf_du lg(mu)  ||d||  lg(rg) alpha_du alpha_pr  ls
  10 -9.2458982e-01 2.12e-04 6.96e-03  -3.8 2.08e-02  -0.5 1.00e+00 1.00e+00h  1
  11 -9.3188197e-01 2.34e-03 9.23e-03  -3.8 2.70e-01  -1.0 2.62e-01 2.46e-01h  1
  12 -9.3905073e-01 6.17e-04 9.01e-03  -3.8 3.04e-02  -0.5 1.00e+00 9.32e-01f  1
  13 -9.4542669e-01 1.43e-03 7.51e-03  -3.8 1.07e-01  -1.0 1.00e+00 4.64e-01f  1
  14 -9.5255712e-01 5.83e-04 5.15e-03  -3.8 2.01e-02  -0.6 1.00e+00 1.00e+00f  1
  15 -9.6090293e-01 2.07e-03 6.99e-03  -3.8 8.30e-02  -1.1 1.00e+00 5.84e-01h  1
  16 -9.6584918e-01 4.31e-04 4.27e-03  -3.8 1.85e-02  -0.6 1.00e+00 1.00e+00f  1
  17 -9.7224623e-01 7.24e-04 3.08e-03  -3.8 2.98e-02  -1.1 1.00e+00 1.00e+00h  1
  18 -9.7797209e-01 8.42e-04 5.63e-03  -3.8 1.12e-01  -1.6 1.00e+00 6.87e-01H  1
  19 -9.7927751e-01 3.48e-04 2.22e-03  -3.8 3.16e-02  -1.2 1.00e+00 1.00e+00f  1
iter    objective    inf_pr   inf_du lg(mu)  ||d||  lg(rg) alpha_du alpha_pr  ls
  20 -9.8189153e-01 5.81e-04 1.46e-03  -3.8 3.62e-02  -1.6 1.00e+00 1.00e+00h  1
  21 -9.8571336e-01 2.64e-03 4.92e-03  -5.7 3.85e-01    -  2.04e-01 1.99e-01h  1
  22 -9.9626054e-01 1.04e-03 2.23e-03  -5.7 2.81e-02  -1.2 8.70e-01 9.55e-01h  1
  23 -9.9810698e-01 6.85e-04 3.76e-03  -5.7 1.13e-01  -1.7 5.88e-01 3.24e-01h  1
  24 -1.0000018e+00 2.69e-04 3.81e-03  -5.7 2.98e-02  -1.3 1.00e+00 7.68e-01h  1
  25 -9.9997479e-01 2.69e-04 6.64e-03  -5.7 2.96e-01  -1.7 3.06e-01 8.89e-03h  6
  26 -1.0001031e+00 2.62e-04 2.64e-02  -5.7 1.67e-01  -2.2 1.00e+00 1.56e-01h  1
  27 -1.0002663e+00 1.76e-04 6.36e-03  -5.7 8.34e-03  -0.9 6.31e-01 3.37e-01f  1
  28 -1.0009699e+00 7.04e-04 2.68e-03  -5.7 4.27e-02  -1.4 1.00e+00 9.83e-01f  1
  29 -1.0016745e+00 1.94e-04 2.60e-03  -5.7 2.07e-02  -0.9 1.00e+00 1.00e+00f  1
iter    objective    inf_pr   inf_du lg(mu)  ||d||  lg(rg) alpha_du alpha_pr  ls
  30 -1.0033329e+00 2.18e-03 5.10e-03  -5.7 1.20e-01  -1.4 9.90e-01 5.10e-01h  1
  31 -1.0033436e+00 2.17e-03 1.04e-01  -5.7 1.28e-01  -1.9 1.00e+00 5.12e-03h  1
  32 -1.0038342e+00 4.94e-04 3.09e-02  -5.7 8.60e-03  -1.5 1.00e+00 7.79e-01f  1
Reallocating memory for MA57: lfact (83384)
  33 -1.0039306e+00 3.95e-04 4.67e-02  -5.7 5.94e-02  -1.9 5.62e-01 2.03e-01f  1
  34 -1.0040269e+00 6.26e-04 4.68e-02  -5.7 7.77e-02  -1.5 1.00e+00 3.82e-01f  1
  35 -1.0042980e+00 4.31e-04 3.05e-03  -5.7 9.77e-02  -2.0 1.00e+00 3.25e-01f  1
  36 -1.0042379e+00 4.23e-04 1.59e-02  -5.7 2.92e-01  -2.5 2.89e-01 2.10e-02h  5
  37 -1.0053585e+00 4.04e-03 8.22e-03  -5.7 1.55e-01  -2.0 1.00e+00 6.31e-01h  1
  38 -1.0053521e+00 3.98e-03 1.13e-02  -5.7 9.81e-02  -2.5 2.43e-01 1.34e-02h  1
  39 -1.0055797e+00 2.30e-03 6.37e-03  -5.7 4.44e-03  -3.0 1.00e+00 4.22e-01f  1
iter    objective    inf_pr   inf_du lg(mu)  ||d||  lg(rg) alpha_du alpha_pr  ls
  40 -1.0058404e+00 2.70e-06 2.74e-05  -5.7 2.25e-03  -2.6 9.96e-01 1.00e+00f  1
  41 -1.0058414e+00 2.02e-06 1.61e-03  -5.7 3.01e-03  -2.1 1.00e+00 5.64e-01h  1
  42 -1.0058420e+00 3.68e-07 2.74e-06  -5.7 1.02e-03  -2.6 1.00e+00 1.00e+00f  1
  43 -1.0060654e+00 6.88e-07 7.16e-05  -8.6 1.95e-03  -2.2 9.43e-01 9.81e-01h  1
Reallocating memory for MA57: lfact (89491)
Reallocating memory for MA57: lfact (97483)
  44 -1.0060704e+00 1.08e-09 1.41e-07  -8.6 6.61e-05  -2.7 1.00e+00 1.00e+00h  1
Reallocating memory for MA57: lfact (113401)
Reallocating memory for MA57: lfact (129793)
  45 -1.0060704e+00 1.73e-13 4.55e-09  -8.6 8.09e-07  -2.2 1.00e+00 1.00e+00h  1

Number of Iterations....: 45

                                   (scaled)                 (unscaled)
Objective...............:  -1.0060703974405918e+00   -1.0060703974405918e+00
Dual infeasibility......:   4.5536337797315865e-09    4.5536337797315865e-09
Constraint violation....:   1.7299742202811616e-13    1.7299742202811616e-13
Complementarity.........:   2.5345832909699372e-09    2.5345832909699372e-09
Overall NLP error.......:   4.5536337797315865e-09    4.5536337797315865e-09


Number of objective function evaluations             = 60
Number of objective gradient evaluations             = 46
Number of equality constraint evaluations            = 60
Number of inequality constraint evaluations          = 60
Number of equality constraint Jacobian evaluations   = 46
Number of inequality constraint Jacobian evaluations = 46
Number of Lagrangian Hessian evaluations             = 45
Total CPU secs in IPOPT (w/o function evaluations)   =      0.350
Total CPU secs in NLP function evaluations           =      0.023

EXIT: Optimal Solution Found.

************************ CUTEst statistics ************************


 Package used            :  IPOPT
 Problem                 :  TWIRISM1  
 # variables             =             343
 # constraints           =             313
 # objective functions   =        0.1070000E+03
 # objective gradients   =        0.4700000E+02
 # objective Hessians    =        0.4600000E+02
 # Hessian-vector prdct  =        0.0000000E+00
 # constraints functions =        0.1080000E+03
 # constraints gradients =        0.4800000E+02
 # constraints Hessians  =        0.4600000E+02
 Exit code               =               0
 Final f                 =  -0.1006070E+01
 Set up time             =            0.02 seconds
 Solve time              =            0.58 seconds


******************************************************************

System Time =       0.3339999914 s.
